conditionSynthesis/results/repairExamples_all_1h_G1/boundariesSl/crafted/bat_bug_loop_v1_realizable.boundaries.sl
(set-logic ALL)
(synth-fun Condition_0 ((@g_0 Int) (main@%.1.i.lcssa_0 Int) (main@%.2.i_1 Int) ) Bool
)
(define-fun main@._crit_edge!_Cond ((@g_0 Int) (main@%.1.i.lcssa_0 Int) (main@%.2.i_1 Int) ) Bool
	(not (>= main@%.2.i_1 9))
)
(define-fun main@_17 ((@g_0 Int) (main@%.1.i.lcssa_0 Int) ) Bool
	true
)
(define-fun main@verifier.error ((main@%.2.i_1 Int) ) Bool
	(not (>= main@%.2.i_1 9))
)
(define-fun psi_f_0 ((@g_0 Int) (main@%.1.i.lcssa_0 Int) (main@%.2.i_1 Int) ) Bool
(and (main@verifier.error main@%.2.i_1) (not (main@._crit_edge!_Cond @g_0 main@%.1.i.lcssa_0 main@%.2.i_1)))
)
(define-fun psi_t_0 ((@g_0 Int) (main@%.1.i.lcssa_0 Int) (main@%.2.i_1 Int) ) Bool
(or (main@._crit_edge!_Cond @g_0 main@%.1.i.lcssa_0 main@%.2.i_1) (not (main@_17 @g_0 main@%.1.i.lcssa_0)))
)
(declare-var @g_0 Int)
(declare-var main@%.1.i.lcssa_0 Int)
(declare-var main@%.2.i_1 Int)
(constraint (=> (psi_f_0 @g_0 main@%.1.i.lcssa_0 main@%.2.i_1 ) (Condition_0 @g_0 main@%.1.i.lcssa_0 main@%.2.i_1 )))
(constraint (=> (Condition_0 @g_0 main@%.1.i.lcssa_0 main@%.2.i_1 ) (psi_t_0 @g_0 main@%.1.i.lcssa_0 main@%.2.i_1 )))
(check-synth)
