conditionSynthesis/results/repairExamples_all_1h_G1/boundaries/crafted/bat_bug_loop_v1_realizable.boundaries.out
(
(define-fun Condition_0 ((vg_0 Int) (mainv%.1.i.lcssa_0 Int) (mainv%.2.i_1 Int)) Bool false)
)
